(set-info :smt-lib-version 2.6)
(set-logic UFNIA)
(set-info :source |
Generated by: Geoff Sutcliffe
Generated on: 2026-03-11
Generator: TPTPWorld
Application: Benchmarking automated theorem provers
Time limit: 120.0

These benchmarks are translations from the TPTP Library (Thousands of
Problems for Theorem Provers), see http://www.cs.miami.edu/~tptp/

The TPTP is maintained by Geoff Sutcliffe, and he contributed this
selection of benchmarks to SMT-LIB.  They were exported from the
v9.2.1 realease of TPTP.
|)
(set-info :category "industrial")
(set-info :status unknown)
; SZS status Success
(declare-sort $$unsorted 0)
(declare-sort tptp.uni 0)
(declare-sort tptp.ty 0)
(declare-fun tptp.sort1 (tptp.ty tptp.uni) Bool)
(declare-fun tptp.witness1 (tptp.ty) tptp.uni)
(assert (forall ((A tptp.ty)) (tptp.sort1 A (tptp.witness1 A))))
(declare-fun tptp.int () tptp.ty)
(declare-fun tptp.real () tptp.ty)
(declare-sort tptp.bool1 0)
(declare-fun tptp.bool () tptp.ty)
(declare-fun tptp.true1 () tptp.bool1)
(declare-fun tptp.false1 () tptp.bool1)
(declare-fun tptp.match_bool1 (tptp.ty tptp.bool1 tptp.uni tptp.uni) tptp.uni)
(assert (forall ((A tptp.ty) (X tptp.bool1) (X1 tptp.uni) (X2 tptp.uni)) (tptp.sort1 A (tptp.match_bool1 A X X1 X2))))
(assert (forall ((A tptp.ty) (Z tptp.uni) (Z1 tptp.uni)) (=> (tptp.sort1 A Z) (= (tptp.match_bool1 A tptp.true1 Z Z1) Z))))
(assert (forall ((A tptp.ty) (Z tptp.uni) (Z1 tptp.uni)) (=> (tptp.sort1 A Z1) (= (tptp.match_bool1 A tptp.false1 Z Z1) Z1))))
(assert (not (= tptp.true1 tptp.false1)))
(assert (forall ((U tptp.bool1)) (or (= U tptp.true1) (= U tptp.false1))))
(declare-sort tptp.tuple02 0)
(declare-fun tptp.tuple0 () tptp.ty)
(declare-fun tptp.tuple03 () tptp.tuple02)
(assert (forall ((U tptp.tuple02)) (= U tptp.tuple03)))
(declare-fun tptp.qtmark () tptp.ty)
(assert (forall ((X Int) (Y Int) (Z Int)) (=> (<= X Y) (=> (<= 0 Z) (<= (* X Z) (* Y Z))))))
(declare-fun tptp.min1 (Int Int) Int)
(declare-fun tptp.max1 (Int Int) Int)
(assert (forall ((X Int) (Y Int)) (let ((_let_1 (tptp.max1 X Y))) (and (<= X _let_1) (<= Y _let_1)))))
(assert (forall ((X Int) (Y Int)) (let ((_let_1 (tptp.max1 X Y))) (or (= _let_1 X) (= _let_1 Y)))))
(assert (forall ((X Int) (Y Int)) (let ((_let_1 (tptp.min1 X Y))) (and (<= _let_1 X) (<= _let_1 Y)))))
(assert (forall ((X Int) (Y Int)) (let ((_let_1 (tptp.min1 X Y))) (or (= _let_1 X) (= _let_1 Y)))))
(assert (forall ((X Int) (Y Int)) (=> (<= Y X) (= (tptp.max1 X Y) X))))
(assert (forall ((X Int) (Y Int)) (=> (<= X Y) (= (tptp.max1 X Y) Y))))
(assert (forall ((X Int) (Y Int)) (=> (<= X Y) (= (tptp.min1 X Y) X))))
(assert (forall ((X Int) (Y Int)) (=> (<= Y X) (= (tptp.min1 X Y) Y))))
(assert (forall ((X Int) (Y Int)) (=> (<= Y X) (= (tptp.max1 X Y) (tptp.max1 Y X)))))
(assert (forall ((X Int) (Y Int)) (=> (<= Y X) (= (tptp.min1 X Y) (tptp.min1 Y X)))))
(declare-fun tptp.map (tptp.ty tptp.ty) tptp.ty)
(declare-fun tptp.get (tptp.ty tptp.ty tptp.uni tptp.uni) tptp.uni)
(assert (forall ((A tptp.ty) (B tptp.ty) (X tptp.uni) (X1 tptp.uni)) (tptp.sort1 B (tptp.get B A X X1))))
(declare-fun tptp.set (tptp.ty tptp.ty tptp.uni tptp.uni tptp.uni) tptp.uni)
(assert (forall ((A tptp.ty) (B tptp.ty) (X tptp.uni) (X1 tptp.uni) (X2 tptp.uni)) (tptp.sort1 (tptp.map A B) (tptp.set B A X X1 X2))))
(assert (forall ((A tptp.ty) (B tptp.ty) (M tptp.uni) (A1 tptp.uni) (A2 tptp.uni) (B1 tptp.uni)) (=> (tptp.sort1 B B1) (=> (= A1 A2) (= (tptp.get B A (tptp.set B A M A1 B1) A2) B1)))))
(assert (forall ((A tptp.ty) (B tptp.ty) (M tptp.uni) (A1 tptp.uni) (A2 tptp.uni)) (=> (tptp.sort1 A A1) (=> (tptp.sort1 A A2) (forall ((B1 tptp.uni)) (=> (not (= A1 A2)) (= (tptp.get B A (tptp.set B A M A1 B1) A2) (tptp.get B A M A2))))))))
(declare-fun tptp.const (tptp.ty tptp.ty tptp.uni) tptp.uni)
(assert (forall ((A tptp.ty) (B tptp.ty) (X tptp.uni)) (tptp.sort1 (tptp.map A B) (tptp.const B A X))))
(assert (forall ((A tptp.ty) (B tptp.ty) (B1 tptp.uni) (A1 tptp.uni)) (=> (tptp.sort1 B B1) (= (tptp.get B A (tptp.const B A B1) A1) B1))))
(declare-fun tptp.array (tptp.ty) tptp.ty)
(declare-fun tptp.mk_array1 (tptp.ty Int tptp.uni) tptp.uni)
(assert (forall ((A tptp.ty) (X Int) (X1 tptp.uni)) (tptp.sort1 (tptp.array A) (tptp.mk_array1 A X X1))))
(declare-fun tptp.length2 (tptp.ty tptp.uni) Int)
(assert (forall ((A tptp.ty) (U Int) (U1 tptp.uni)) (= (tptp.length2 A (tptp.mk_array1 A U U1)) U)))
(declare-fun tptp.elts (tptp.ty tptp.uni) tptp.uni)
(assert (forall ((A tptp.ty) (X tptp.uni)) (tptp.sort1 (tptp.map tptp.int A) (tptp.elts A X))))
(assert (forall ((A tptp.ty) (U Int) (U1 tptp.uni)) (=> (tptp.sort1 (tptp.map tptp.int A) U1) (= (tptp.elts A (tptp.mk_array1 A U U1)) U1))))
(assert (forall ((A tptp.ty) (U tptp.uni)) (= U (tptp.mk_array1 A (tptp.length2 A U) (tptp.elts A U)))))
(declare-fun tptp.get2 (tptp.ty tptp.uni Int) tptp.uni)
(assert (forall ((A tptp.ty) (X tptp.uni) (X1 Int)) (tptp.sort1 A (tptp.get2 A X X1))))
(declare-fun tptp.t2tb (Int) tptp.uni)
(assert (forall ((X Int)) (tptp.sort1 tptp.int (tptp.t2tb X))))
(declare-fun tptp.tb2t (tptp.uni) Int)
(assert (forall ((I Int)) (= (tptp.tb2t (tptp.t2tb I)) I)))
(assert (forall ((J tptp.uni)) (= (tptp.t2tb (tptp.tb2t J)) J)))
(assert (forall ((A tptp.ty) (A1 tptp.uni) (I Int)) (= (tptp.get2 A A1 I) (tptp.get A tptp.int (tptp.elts A A1) (tptp.t2tb I)))))
(declare-fun tptp.set2 (tptp.ty tptp.uni Int tptp.uni) tptp.uni)
(assert (forall ((A tptp.ty) (X tptp.uni) (X1 Int) (X2 tptp.uni)) (tptp.sort1 (tptp.array A) (tptp.set2 A X X1 X2))))
(assert (forall ((A tptp.ty) (A1 tptp.uni) (I Int) (V tptp.uni)) (= (tptp.set2 A A1 I V) (tptp.mk_array1 A (tptp.length2 A A1) (tptp.set A tptp.int (tptp.elts A A1) (tptp.t2tb I) V)))))
(declare-fun tptp.make2 (tptp.ty Int tptp.uni) tptp.uni)
(assert (forall ((A tptp.ty) (X Int) (X1 tptp.uni)) (tptp.sort1 (tptp.array A) (tptp.make2 A X X1))))
(assert (forall ((A tptp.ty) (N Int) (V tptp.uni)) (= (tptp.make2 A N V) (tptp.mk_array1 A N (tptp.const A tptp.int V)))))
(declare-fun tptp.rarray (tptp.ty) tptp.ty)
(declare-fun tptp.mk_rarray1 (tptp.ty tptp.uni Int tptp.uni) tptp.uni)
(assert (forall ((A tptp.ty) (X tptp.uni) (X1 Int) (X2 tptp.uni)) (tptp.sort1 (tptp.rarray A) (tptp.mk_rarray1 A X X1 X2))))
(declare-fun tptp.dummy (tptp.ty tptp.uni) tptp.uni)
(assert (forall ((A tptp.ty) (X tptp.uni)) (tptp.sort1 A (tptp.dummy A X))))
(assert (forall ((A tptp.ty) (U tptp.uni) (U1 Int) (U2 tptp.uni)) (=> (tptp.sort1 A U) (= (tptp.dummy A (tptp.mk_rarray1 A U U1 U2)) U))))
(declare-fun tptp.length3 (tptp.ty tptp.uni) Int)
(assert (forall ((A tptp.ty) (U tptp.uni) (U1 Int) (U2 tptp.uni)) (= (tptp.length3 A (tptp.mk_rarray1 A U U1 U2)) U1)))
(declare-fun tptp.data (tptp.ty tptp.uni) tptp.uni)
(assert (forall ((A tptp.ty) (X tptp.uni)) (tptp.sort1 (tptp.array A) (tptp.data A X))))
(assert (forall ((A tptp.ty) (U tptp.uni) (U1 Int) (U2 tptp.uni)) (= (tptp.data A (tptp.mk_rarray1 A U U1 U2)) U2)))
(assert (forall ((A tptp.ty) (U tptp.uni)) (= U (tptp.mk_rarray1 A (tptp.dummy A U) (tptp.length3 A U) (tptp.data A U)))))
(declare-fun tptp.mixfix_lbrb1 (tptp.ty tptp.uni Int) tptp.uni)
(assert (forall ((A tptp.ty) (X tptp.uni) (X1 Int)) (tptp.sort1 A (tptp.mixfix_lbrb1 A X X1))))
(assert (forall ((A tptp.ty) (R tptp.uni) (I Int)) (= (tptp.mixfix_lbrb1 A R I) (tptp.get2 A (tptp.data A R) I))))
(declare-fun tptp.mixfix_lblsmnrb1 (tptp.ty tptp.uni Int tptp.uni) tptp.uni)
(assert (forall ((A tptp.ty) (X tptp.uni) (X1 Int) (X2 tptp.uni)) (tptp.sort1 (tptp.rarray A) (tptp.mixfix_lblsmnrb1 A X X1 X2))))
(assert (forall ((A tptp.ty) (R tptp.uni) (I Int) (V tptp.uni)) (= (tptp.mixfix_lblsmnrb1 A R I V) (tptp.mk_rarray1 A (tptp.dummy A R) (tptp.length3 A R) (tptp.set2 A (tptp.data A R) I V)))))
(declare-fun tptp.make3 (tptp.ty Int tptp.uni) tptp.uni)
(assert (forall ((A tptp.ty) (X Int) (X1 tptp.uni)) (tptp.sort1 (tptp.rarray A) (tptp.make3 A X X1))))
(assert (forall ((A tptp.ty) (Len Int) (Dummy tptp.uni)) (= (tptp.make3 A Len Dummy) (tptp.mk_rarray1 A Dummy Len (tptp.make2 A Len Dummy)))))
(declare-sort tptp.map_int_int 0)
(declare-fun tptp.t2tb1 (tptp.map_int_int) tptp.uni)
(assert (forall ((X tptp.map_int_int)) (tptp.sort1 (tptp.map tptp.int tptp.int) (tptp.t2tb1 X))))
(declare-fun tptp.tb2t1 (tptp.uni) tptp.map_int_int)
(assert (forall ((I tptp.map_int_int)) (= (tptp.tb2t1 (tptp.t2tb1 I)) I)))
(assert (forall ((J tptp.uni)) (= (tptp.t2tb1 (tptp.tb2t1 J)) J)))
(declare-sort tptp.array_int 0)
(declare-fun tptp.t2tb2 (tptp.array_int) tptp.uni)
(assert (forall ((X tptp.array_int)) (tptp.sort1 (tptp.array tptp.int) (tptp.t2tb2 X))))
(declare-fun tptp.tb2t2 (tptp.uni) tptp.array_int)
(assert (forall ((I tptp.array_int)) (= (tptp.tb2t2 (tptp.t2tb2 I)) I)))
(assert (forall ((J tptp.uni)) (= (tptp.t2tb2 (tptp.tb2t2 J)) J)))
(declare-sort tptp.rarray_int 0)
(declare-fun tptp.t2tb3 (tptp.rarray_int) tptp.uni)
(assert (forall ((X tptp.rarray_int)) (tptp.sort1 (tptp.rarray tptp.int) (tptp.t2tb3 X))))
(declare-fun tptp.tb2t3 (tptp.uni) tptp.rarray_int)
(assert (forall ((I tptp.rarray_int)) (= (tptp.tb2t3 (tptp.t2tb3 I)) I)))
(assert (forall ((J tptp.uni)) (= (tptp.t2tb3 (tptp.tb2t3 J)) J)))
(assert (let ((_let_1 (tptp.make3 tptp.int 10 (tptp.t2tb 0)))) (let ((_let_2 (tptp.length3 tptp.int _let_1))) (not (and (<= 0 10) (=> (and (<= 0 _let_2) (<= _let_2 (tptp.length2 tptp.int (tptp.data tptp.int _let_1))) (forall ((I Int)) (let ((_let_1 (tptp.make3 tptp.int 10 (tptp.t2tb 0)))) (let ((_let_2 (tptp.data tptp.int _let_1))) (=> (and (<= (tptp.length3 tptp.int _let_1) I) (< I (tptp.length2 tptp.int _let_2))) (= (tptp.tb2t (tptp.get tptp.int tptp.int (tptp.elts tptp.int _let_2) (tptp.t2tb I))) (tptp.tb2t (tptp.dummy tptp.int _let_1))))))) (exists ((X Int) (X1 Int) (X2 tptp.array_int)) (let ((_let_1 (tptp.t2tb2 X2))) (and (= (tptp.tb2t3 (tptp.make3 tptp.int 10 (tptp.t2tb 0))) (tptp.tb2t3 (tptp.mk_rarray1 tptp.int (tptp.t2tb X) X1 _let_1))) (<= 0 (tptp.length2 tptp.int _let_1)))))) (and (<= 0 0) (< 0 _let_2) (forall ((Rho tptp.map_int_int)) (let ((_let_1 (tptp.make3 tptp.int 10 (tptp.t2tb 0)))) (let ((_let_2 (tptp.length3 tptp.int _let_1))) (let ((_let_3 (<= _let_2 (tptp.length2 tptp.int (tptp.data tptp.int _let_1))))) (let ((_let_4 (<= 0 _let_2))) (=> (and _let_4 _let_3 (forall ((I Int)) (let ((_let_1 (tptp.make3 tptp.int 10 (tptp.t2tb 0)))) (=> (and (<= (tptp.length3 tptp.int _let_1) I) (< I (tptp.length2 tptp.int (tptp.data tptp.int _let_1)))) (= (tptp.tb2t (tptp.get tptp.int tptp.int (tptp.t2tb1 Rho) (tptp.t2tb I))) (tptp.tb2t (tptp.dummy tptp.int _let_1)))))) (exists ((X Int) (X1 Int) (X2 tptp.array_int)) (let ((_let_1 (tptp.t2tb2 X2))) (and (= (tptp.tb2t3 (tptp.make3 tptp.int 10 (tptp.t2tb 0))) (tptp.tb2t3 (tptp.mk_rarray1 tptp.int (tptp.t2tb X) X1 _let_1))) (<= 0 (tptp.length2 tptp.int _let_1))))) (exists ((X Int) (X1 Int) (X2 tptp.array_int)) (let ((_let_1 (tptp.make3 tptp.int 10 (tptp.t2tb 0)))) (and (= (tptp.tb2t3 _let_1) (tptp.tb2t3 (tptp.mk_rarray1 tptp.int (tptp.t2tb X) X1 (tptp.t2tb2 X2)))) (= (tptp.tb2t (tptp.dummy tptp.int _let_1)) X) (= (tptp.length3 tptp.int _let_1) X1) (exists ((X3 Int) (X4 tptp.map_int_int)) (let ((_let_1 (tptp.t2tb 0))) (let ((_let_2 (tptp.data tptp.int (tptp.make3 tptp.int 10 _let_1)))) (and (= X2 (tptp.tb2t2 (tptp.mk_array1 tptp.int X3 (tptp.t2tb1 X4)))) (= (tptp.length2 tptp.int _let_2) X3) (= (tptp.tb2t1 (tptp.set tptp.int tptp.int (tptp.elts tptp.int _let_2) _let_1 (tptp.t2tb 17))) Rho))))))))) (and (<= 0 10) (=> (and _let_4 _let_3 (forall ((I Int)) (let ((_let_1 (tptp.make3 tptp.int 10 (tptp.t2tb 0)))) (let ((_let_2 (tptp.data tptp.int _let_1))) (=> (and (<= (tptp.length3 tptp.int _let_1) I) (< I (tptp.length2 tptp.int _let_2))) (= (tptp.tb2t (tptp.get tptp.int tptp.int (tptp.elts tptp.int _let_2) (tptp.t2tb I))) (tptp.tb2t (tptp.dummy tptp.int _let_1))))))) (exists ((X Int) (X1 Int) (X2 tptp.array_int)) (let ((_let_1 (tptp.t2tb2 X2))) (and (= (tptp.tb2t3 (tptp.make3 tptp.int 10 (tptp.t2tb 0))) (tptp.tb2t3 (tptp.mk_rarray1 tptp.int (tptp.t2tb X) X1 _let_1))) (<= 0 (tptp.length2 tptp.int _let_1)))))) (and (<= 0 0) (< 0 _let_2) (forall ((Rho1 tptp.map_int_int)) (let ((_let_1 (tptp.make3 tptp.int 10 (tptp.t2tb 0)))) (let ((_let_2 (tptp.length3 tptp.int _let_1))) (=> (and (<= 0 _let_2) (<= _let_2 (tptp.length2 tptp.int (tptp.data tptp.int _let_1))) (forall ((I Int)) (let ((_let_1 (tptp.make3 tptp.int 10 (tptp.t2tb 0)))) (=> (and (<= (tptp.length3 tptp.int _let_1) I) (< I (tptp.length2 tptp.int (tptp.data tptp.int _let_1)))) (= (tptp.tb2t (tptp.get tptp.int tptp.int (tptp.t2tb1 Rho1) (tptp.t2tb I))) (tptp.tb2t (tptp.dummy tptp.int _let_1)))))) (exists ((X Int) (X1 Int) (X2 tptp.array_int)) (let ((_let_1 (tptp.t2tb2 X2))) (and (= (tptp.tb2t3 (tptp.make3 tptp.int 10 (tptp.t2tb 0))) (tptp.tb2t3 (tptp.mk_rarray1 tptp.int (tptp.t2tb X) X1 _let_1))) (<= 0 (tptp.length2 tptp.int _let_1))))) (exists ((X Int) (X1 Int) (X2 tptp.array_int)) (let ((_let_1 (tptp.make3 tptp.int 10 (tptp.t2tb 0)))) (and (= (tptp.tb2t3 _let_1) (tptp.tb2t3 (tptp.mk_rarray1 tptp.int (tptp.t2tb X) X1 (tptp.t2tb2 X2)))) (= (tptp.tb2t (tptp.dummy tptp.int _let_1)) X) (= (tptp.length3 tptp.int _let_1) X1) (exists ((X3 Int) (X4 tptp.map_int_int)) (let ((_let_1 (tptp.t2tb 0))) (let ((_let_2 (tptp.data tptp.int (tptp.make3 tptp.int 10 _let_1)))) (and (= X2 (tptp.tb2t2 (tptp.mk_array1 tptp.int X3 (tptp.t2tb1 X4)))) (= (tptp.length2 tptp.int _let_2) X3) (= (tptp.tb2t1 (tptp.set tptp.int tptp.int (tptp.elts tptp.int _let_2) _let_1 (tptp.t2tb 42))) Rho1))))))))) (forall ((Rho2 Int) (Rho3 tptp.map_int_int) (Rho4 Int)) (let ((_let_1 (tptp.t2tb 0))) (let ((_let_2 (tptp.length3 tptp.int (tptp.make3 tptp.int 10 _let_1)))) (let ((_let_3 (tptp.t2tb1 Rho3))) (=> (and (<= 0 Rho4) (<= Rho4 Rho2) (forall ((I Int)) (=> (and (<= Rho4 I) (< I Rho2)) (= (tptp.tb2t (tptp.get tptp.int tptp.int (tptp.t2tb1 Rho3) (tptp.t2tb I))) (tptp.tb2t (tptp.dummy tptp.int (tptp.make3 tptp.int 10 (tptp.t2tb 0))))))) (exists ((X Int) (X1 Int) (X2 tptp.array_int)) (and (= (tptp.tb2t3 (tptp.make3 tptp.int 10 (tptp.t2tb 0))) (tptp.tb2t3 (tptp.mk_rarray1 tptp.int (tptp.t2tb X) X1 (tptp.t2tb2 X2)))) (<= 0 Rho2))) (= Rho4 (+ _let_2 _let_2)) (forall ((I Int)) (let ((_let_1 (tptp.length3 tptp.int (tptp.make3 tptp.int 10 (tptp.t2tb 0))))) (let ((_let_2 (tptp.t2tb I))) (let ((_let_3 (tptp.tb2t (tptp.get tptp.int tptp.int (tptp.t2tb1 Rho3) _let_2)))) (=> (and (<= 0 I) (< I Rho4)) (and (=> (< I _let_1) (= _let_3 (tptp.tb2t (tptp.get tptp.int tptp.int (tptp.t2tb1 Rho) _let_2)))) (=> (<= _let_1 I) (= _let_3 (tptp.tb2t (tptp.get tptp.int tptp.int (tptp.t2tb1 Rho1) (tptp.t2tb (- I _let_1))))))))))))) (and (= Rho4 20) (= (tptp.tb2t (tptp.get tptp.int tptp.int _let_3 _let_1)) 17) (<= 0 10) (< 10 Rho4) (= (tptp.tb2t (tptp.get tptp.int tptp.int _let_3 (tptp.t2tb 10))) 42) (<= 0 0) (< 0 _let_2) (= (tptp.tb2t (tptp.get tptp.int tptp.int (tptp.t2tb1 Rho1) _let_1)) 42)))))))))))))))))))))))))))
(check-sat)
(exit)
